c "random instance"
p edges 150 1132
e 1 10
e 1 38
e 1 59
e 1 79
e 1 91
e 1 114
e 1 124
e 1 150
e 2 7
e 2 8
e 2 9
e 2 10
e 2 36
e 2 40
e 2 54
e 2 71
e 2 72
e 2 76
e 2 79
e 2 93
e 2 95
e 2 96
e 2 102
e 2 103
e 2 104
e 2 118
e 2 133
e 3 7
e 3 27
e 3 28
e 3 34
e 3 36
e 3 43
e 3 46
e 3 62
e 3 70
e 3 71
e 3 73
e 3 81
e 3 89
e 3 117
e 3 121
e 3 124
e 3 145
e 4 11
e 4 20
e 4 26
e 4 32
e 4 38
e 4 49
e 4 60
e 4 62
e 4 80
e 4 82
e 4 85
e 4 101
e 4 117
e 4 123
e 4 125
e 4 145
e 5 9
e 5 10
e 5 11
e 5 21
e 5 26
e 5 47
e 5 49
e 5 64
e 5 66
e 5 68
e 5 78
e 5 88
e 5 93
e 5 132
e 6 11
e 6 16
e 6 18
e 6 20
e 6 21
e 6 61
e 6 75
e 6 76
e 6 79
e 6 85
e 6 92
e 6 94
e 6 96
e 6 141
e 7 36
e 7 42
e 7 48
e 7 51
e 7 89
e 7 105
e 7 111
e 7 115
e 7 116
e 7 122
e 7 135
e 7 144
e 8 24
e 8 46
e 8 52
e 8 93
e 8 109
e 8 114
e 8 118
e 8 119
e 8 120
e 8 123
e 8 133
e 9 15
e 9 24
e 9 39
e 9 40
e 9 50
e 9 52
e 9 55
e 9 63
e 9 73
e 9 77
e 9 86
e 9 99
e 9 100
e 9 134
e 9 136
e 10 22
e 10 23
e 10 43
e 10 47
e 10 57
e 10 71
e 10 75
e 10 117
e 10 119
e 10 132
e 10 139
e 11 39
e 11 46
e 11 48
e 11 56
e 11 60
e 11 68
e 11 70
e 11 72
e 11 84
e 11 93
e 11 99
e 11 100
e 11 102
e 11 121
e 11 134
e 11 136
e 11 144
e 11 149
e 12 24
e 12 39
e 12 50
e 12 60
e 12 68
e 12 75
e 12 78
e 12 85
e 12 103
e 12 109
e 12 125
e 12 128
e 12 129
e 12 142
e 12 144
e 12 145
e 13 15
e 13 16
e 13 29
e 13 41
e 13 56
e 13 62
e 13 65
e 13 111
e 13 118
e 13 146
e 13 148
e 14 24
e 14 36
e 14 46
e 14 63
e 14 72
e 14 73
e 14 74
e 14 89
e 14 101
e 14 102
e 14 111
e 14 124
e 14 133
e 14 147
e 14 150
e 15 32
e 15 36
e 15 38
e 15 59
e 15 73
e 15 91
e 15 94
e 15 146
e 16 23
e 16 33
e 16 35
e 16 36
e 16 39
e 16 42
e 16 44
e 16 45
e 16 47
e 16 69
e 16 78
e 16 81
e 16 96
e 16 104
e 16 108
e 16 109
e 16 110
e 16 113
e 16 124
e 16 126
e 16 131
e 16 133
e 17 46
e 17 49
e 17 58
e 17 59
e 17 61
e 17 66
e 17 80
e 17 86
e 17 105
e 17 136
e 18 25
e 18 36
e 18 48
e 18 50
e 18 58
e 18 89
e 18 120
e 18 127
e 18 129
e 18 137
e 19 23
e 19 24
e 19 31
e 19 41
e 19 49
e 19 51
e 19 56
e 19 75
e 19 78
e 19 79
e 19 85
e 19 93
e 19 96
e 19 113
e 19 121
e 19 122
e 19 123
e 19 125
e 19 129
e 19 144
e 20 31
e 20 41
e 20 50
e 20 56
e 20 61
e 20 63
e 20 72
e 20 77
e 20 78
e 20 118
e 20 122
e 20 127
e 20 131
e 20 137
e 20 140
e 20 141
e 20 143
e 21 27
e 21 66
e 21 73
e 21 128
e 22 37
e 22 43
e 22 50
e 22 74
e 22 77
e 22 83
e 22 88
e 22 90
e 22 91
e 22 96
e 22 97
e 22 104
e 22 134
e 22 145
e 23 47
e 23 70
e 23 76
e 23 78
e 23 86
e 23 89
e 23 90
e 23 92
e 23 103
e 23 115
e 23 146
e 24 28
e 24 41
e 24 48
e 24 56
e 24 57
e 24 59
e 24 89
e 24 103
e 24 104
e 24 109
e 24 114
e 24 123
e 24 125
e 24 131
e 24 138
e 25 26
e 25 30
e 25 32
e 25 35
e 25 55
e 25 56
e 25 88
e 25 94
e 25 102
e 25 104
e 25 119
e 25 120
e 25 128
e 25 132
e 25 141
e 25 145
e 25 149
e 26 33
e 26 35
e 26 53
e 26 59
e 26 60
e 26 61
e 26 64
e 26 65
e 26 66
e 26 78
e 26 95
e 26 105
e 26 107
e 26 135
e 26 139
e 27 72
e 27 84
e 27 121
e 27 124
e 27 128
e 27 130
e 27 133
e 27 134
e 27 137
e 27 140
e 27 150
e 28 32
e 28 33
e 28 39
e 28 51
e 28 66
e 28 81
e 28 83
e 28 101
e 28 103
e 28 113
e 28 115
e 28 117
e 28 132
e 28 140
e 28 144
e 28 145
e 28 150
e 29 30
e 29 33
e 29 51
e 29 62
e 29 79
e 29 84
e 29 89
e 29 93
e 29 136
e 30 39
e 30 41
e 30 51
e 30 57
e 30 74
e 30 81
e 30 83
e 30 85
e 30 90
e 30 123
e 30 130
e 30 142
e 30 150
e 31 32
e 31 33
e 31 37
e 31 50
e 31 58
e 31 61
e 31 70
e 31 71
e 31 81
e 31 85
e 31 107
e 31 109
e 31 120
e 31 121
e 31 140
e 31 144
e 32 44
e 32 69
e 32 92
e 32 105
e 32 122
e 32 141
e 33 48
e 33 54
e 33 77
e 33 86
e 33 97
e 33 99
e 33 111
e 33 118
e 33 120
e 33 127
e 33 139
e 33 150
e 34 38
e 34 43
e 34 70
e 34 72
e 34 77
e 34 82
e 34 102
e 34 120
e 34 122
e 34 134
e 34 142
e 35 56
e 35 58
e 35 64
e 35 69
e 35 71
e 35 86
e 35 90
e 35 100
e 35 102
e 35 103
e 35 120
e 35 127
e 35 134
e 35 138
e 35 145
e 35 149
e 36 52
e 36 56
e 36 59
e 36 80
e 36 98
e 36 114
e 36 134
e 36 137
e 36 140
e 36 141
e 36 146
e 36 148
e 37 38
e 37 39
e 37 65
e 37 69
e 37 80
e 37 103
e 37 131
e 37 148
e 38 65
e 38 72
e 38 77
e 38 81
e 38 88
e 38 92
e 38 93
e 39 67
e 39 76
e 39 84
e 39 106
e 39 118
e 39 123
e 39 131
e 39 148
e 40 63
e 40 64
e 40 66
e 40 69
e 40 75
e 40 77
e 40 81
e 40 102
e 40 104
e 40 120
e 40 145
e 40 148
e 41 45
e 41 51
e 41 54
e 41 77
e 41 80
e 41 81
e 41 90
e 41 110
e 41 120
e 41 138
e 42 44
e 42 51
e 42 52
e 42 59
e 42 62
e 42 65
e 42 77
e 42 85
e 42 88
e 42 105
e 42 114
e 42 122
e 42 126
e 42 131
e 42 135
e 42 136
e 43 64
e 43 72
e 43 78
e 43 81
e 43 87
e 43 105
e 43 112
e 43 122
e 43 130
e 43 131
e 44 57
e 44 64
e 44 76
e 44 89
e 44 113
e 44 131
e 44 150
e 45 52
e 45 53
e 45 72
e 45 95
e 45 98
e 45 106
e 45 107
e 45 116
e 45 124
e 45 146
e 45 150
e 46 56
e 46 65
e 46 73
e 46 75
e 46 76
e 46 78
e 46 80
e 46 101
e 46 102
e 46 103
e 46 112
e 46 114
e 47 58
e 47 72
e 47 79
e 47 111
e 47 119
e 47 131
e 47 146
e 47 147
e 48 70
e 48 73
e 48 76
e 48 79
e 48 81
e 48 92
e 48 94
e 48 113
e 48 118
e 48 126
e 48 137
e 48 142
e 49 56
e 49 63
e 49 67
e 49 70
e 49 72
e 49 73
e 49 79
e 49 82
e 49 85
e 49 97
e 49 104
e 49 116
e 49 122
e 49 125
e 49 139
e 49 141
e 50 77
e 50 95
e 50 105
e 50 117
e 50 122
e 50 124
e 50 129
e 50 130
e 51 53
e 51 57
e 51 59
e 51 65
e 51 71
e 51 74
e 51 83
e 51 93
e 51 110
e 51 124
e 51 132
e 51 133
e 51 149
e 52 57
e 52 60
e 52 68
e 52 69
e 52 70
e 52 90
e 52 92
e 52 94
e 52 95
e 52 101
e 52 104
e 52 109
e 52 120
e 52 123
e 52 128
e 52 141
e 52 146
e 53 55
e 53 67
e 53 108
e 53 110
e 53 124
e 53 125
e 53 134
e 54 68
e 54 102
e 54 110
e 54 111
e 54 114
e 54 138
e 54 141
e 55 57
e 55 68
e 55 69
e 55 71
e 55 73
e 55 95
e 55 103
e 55 106
e 55 109
e 55 117
e 55 127
e 56 66
e 56 78
e 56 81
e 56 90
e 56 97
e 56 101
e 56 105
e 56 115
e 56 127
e 56 128
e 56 133
e 57 92
e 57 136
e 58 62
e 58 63
e 58 67
e 58 102
e 58 120
e 58 142
e 58 143
e 58 144
e 59 79
e 59 95
e 59 118
e 59 127
e 59 129
e 59 139
e 59 144
e 60 63
e 60 64
e 60 67
e 60 74
e 60 82
e 60 92
e 60 107
e 60 123
e 60 125
e 60 126
e 60 127
e 60 130
e 60 139
e 60 148
e 61 62
e 61 89
e 61 103
e 61 104
e 61 121
e 62 63
e 62 65
e 62 79
e 62 107
e 62 113
e 62 131
e 62 134
e 62 143
e 63 72
e 63 74
e 63 85
e 63 88
e 63 107
e 63 112
e 63 123
e 63 124
e 63 125
e 64 65
e 64 75
e 64 79
e 64 86
e 64 93
e 64 95
e 64 105
e 64 113
e 64 116
e 64 118
e 64 120
e 64 122
e 64 133
e 64 141
e 64 146
e 65 69
e 65 82
e 65 94
e 65 103
e 65 106
e 65 107
e 65 119
e 65 126
e 66 74
e 66 78
e 66 84
e 66 98
e 66 101
e 66 117
e 66 147
e 67 73
e 67 83
e 67 86
e 67 88
e 67 101
e 67 109
e 67 112
e 67 119
e 67 128
e 67 134
e 67 140
e 67 142
e 67 146
e 68 69
e 68 90
e 68 99
e 68 103
e 68 116
e 68 118
e 68 127
e 68 138
e 69 79
e 69 85
e 69 86
e 69 96
e 69 105
e 69 117
e 69 125
e 69 128
e 69 136
e 69 137
e 69 140
e 70 71
e 70 73
e 70 74
e 70 109
e 70 124
e 71 75
e 71 87
e 71 98
e 71 104
e 71 105
e 71 113
e 71 119
e 71 130
e 71 147
e 71 148
e 72 79
e 72 94
e 72 97
e 72 120
e 72 130
e 73 92
e 73 100
e 73 113
e 73 115
e 73 134
e 73 141
e 74 79
e 74 102
e 74 117
e 74 132
e 75 80
e 75 83
e 75 87
e 75 107
e 75 125
e 75 128
e 75 135
e 75 142
e 75 150
e 76 89
e 76 91
e 76 95
e 76 99
e 76 105
e 76 147
e 77 106
e 77 123
e 77 136
e 77 137
e 77 147
e 78 129
e 79 88
e 79 104
e 79 105
e 79 108
e 79 113
e 79 124
e 79 128
e 79 134
e 79 138
e 79 140
e 80 89
e 80 91
e 80 94
e 80 98
e 80 102
e 80 111
e 80 127
e 80 140
e 80 141
e 80 145
e 81 83
e 81 86
e 81 100
e 81 110
e 81 115
e 81 125
e 81 141
e 81 148
e 82 91
e 82 92
e 82 93
e 82 102
e 82 103
e 82 114
e 82 134
e 82 137
e 82 148
e 83 104
e 83 107
e 83 112
e 83 114
e 83 117
e 83 118
e 83 122
e 84 92
e 84 106
e 84 109
e 84 119
e 84 121
e 84 139
e 85 88
e 85 108
e 85 134
e 85 145
e 85 147
e 86 89
e 86 106
e 86 118
e 86 124
e 86 125
e 86 130
e 86 141
e 86 143
e 86 145
e 86 146
e 87 95
e 87 110
e 87 115
e 87 117
e 87 122
e 87 123
e 87 129
e 87 150
e 88 90
e 88 91
e 88 101
e 88 106
e 88 129
e 88 137
e 89 98
e 89 106
e 89 148
e 90 92
e 90 94
e 90 102
e 90 107
e 90 114
e 90 122
e 90 143
e 91 105
e 91 120
e 91 146
e 91 148
e 91 150
e 92 126
e 92 127
e 93 117
e 93 121
e 93 124
e 93 144
e 93 145
e 94 102
e 94 111
e 94 112
e 95 99
e 95 125
e 95 145
e 95 150
e 96 97
e 96 118
e 96 133
e 96 136
e 96 140
e 96 150
e 97 102
e 97 111
e 97 118
e 97 119
e 97 123
e 97 146
e 98 104
e 98 105
e 98 108
e 98 134
e 98 142
e 99 104
e 99 114
e 99 116
e 99 117
e 99 126
e 100 102
e 100 105
e 100 109
e 100 110
e 100 117
e 100 119
e 100 120
e 100 123
e 100 139
e 100 149
e 101 104
e 101 109
e 101 110
e 101 115
e 101 121
e 101 122
e 101 128
e 101 139
e 101 149
e 102 111
e 102 112
e 102 113
e 102 128
e 102 129
e 102 149
e 103 105
e 103 111
e 103 113
e 103 114
e 103 116
e 103 125
e 103 130
e 104 128
e 104 130
e 104 135
e 106 129
e 106 140
e 106 145
e 107 112
e 107 113
e 107 147
e 107 150
e 108 113
e 108 117
e 108 122
e 108 129
e 108 133
e 109 127
e 109 150
e 110 111
e 110 113
e 110 114
e 110 125
e 110 133
e 110 134
e 111 112
e 111 113
e 111 127
e 111 135
e 112 117
e 112 149
e 113 114
e 113 120
e 113 135
e 113 138
e 113 141
e 114 128
e 114 148
e 114 150
e 115 117
e 115 119
e 115 132
e 115 133
e 115 136
e 115 143
e 116 117
e 116 119
e 116 130
e 116 131
e 116 136
e 116 149
e 117 119
e 117 122
e 117 126
e 117 129
e 117 140
e 118 128
e 118 129
e 118 132
e 118 136
e 118 146
e 118 149
e 119 135
e 119 136
e 119 150
e 120 128
e 120 144
e 121 122
e 121 131
e 121 132
e 121 134
e 121 136
e 121 142
e 121 148
e 121 150
e 122 143
e 122 144
e 123 139
e 123 141
e 123 148
e 124 126
e 124 127
e 125 129
e 125 131
e 125 132
e 125 136
e 125 141
e 125 145
e 125 149
e 126 134
e 126 140
e 127 135
e 127 136
e 127 146
e 128 138
e 129 136
e 129 144
e 130 138
e 130 145
e 131 143
e 132 134
e 133 143
e 136 144
e 136 148
e 137 143
e 137 145
e 138 139
e 139 140
e 140 142
e 145 149
e 145 150
e 146 149
